param set_len = 26;
param target := 80027371;
set values := 5664665, 2480830, 2165945, 8112216, 5842628, 4120690, 6806862, 2405110, 7180418, 8134331, 5744476, 4419314, 4022875, 6760600, 7972665, 168775, 7647312, 869990, 6247004, 3942695, 7978670, 4291561, 2726824, 233229, 5808129, 53956, ;
